% File represents an instance of a Composite Structure problem to be solved by a CP framework
% Created on 2025-03-26 10:41:19.983
T = 50;
n = 9;
m = 12;
edges = [(1, 2),
(4, 5),
(7, 8),
(3, 2),
(6, 5),
(8, 9),
(4, 1),
(7, 4),
(5, 2),
(8, 5),
(6, 3),
(9, 6)];
counts = [|4, 12, 4, 18,
|4, 12, 4, 12,
|4, 14, 4, 12,
|4, 18, 4, 18,
|4, 12, 4, 18,
|4, 14, 4, 18,
|4, 20, 4, 22,
|4, 18, 4, 18,
|4, 16, 4, 18|];
